NAME : tspbayg29
COMMENT : 29 Cities in Bulgaria.
COMMENT : 
COMMENT : 
TYPE : TSP
DIMENSION : 29
EDGE_WEIGHT_TYPE : EUC_2D
NODE_COORD_SECTION
1 630 166
2 400 209
3 750 110
4 750 203
5 103 207
6 165 650
7 149 163
8 790 226
9 710 131
10 840 55
11 117 230
12 970 134
13 510 700
14 750 900
15 128 120
16 230 590
17 460 860
18 104 950
19 590 139
20 830 177
21 490 500
22 184 124
23 126 150
24 128 790
25 490 213
26 146 142
27 126 191
28 360 198
29 115 176
EOF
